2222.27
0 29 20 32 31 9 1 3 12 0
0 16 15 18 14 4 11 5 6 0
0 19 24 17 30 23 25 73 0
0 34 27 33 22 26 28 21 36 41 44 50 35 0
0 54 55 58 52 42 48 53 37 46 38 51 45 40 0
0 57 56 43 47 72 0
0 60 59 61 63 66 64 49 67 71 8 70 0
0 65 62 13 2 10 7 0
0 74 68 69 39 0
